Crypto/instances/samples/hf_n23/hf_n23_cnf01.sol
c DPLL-like Solver for max-min SAT
f file hf_n23_cnf01.cnf
p cnf 23 95
s max  95 7 -6 5 -8 -9 12 -18 -19 -11 -2 -1 3 -4 -10 -21 -23 -14 -16 15 -22 -13 -17 -20
s min  78 -7 6 -5 -8 9 -12 -18 -19 11 -2 -1 -3 -4 -10 -21 -23 -14 16 15 -22 13 -17 -20